
(set-logic ALL) 

(declare-datatype MyList ((Nil) (Cons (head Real) (tail MyList)) )) 
(declare-fun l0 () MyList) 
(declare-fun l1 () MyList) 
(declare-fun l2 () MyList) 
(declare-fun l3 () MyList) 
(declare-fun i0 () Real) 
(declare-fun i1 () Real) 
(assert (and (= l0 Nil) (= l1 l2) (= l2 Nil) (is-Nil Nil)) )
(assert (not (is-Cons Nil)) )
(assert (is-Nil Nil) )
(assert (not (= l2 Nil)) )
(assert (and (= l2 Nil) (= l0 Nil) (is-Cons Nil)) )
(assert (is-Nil Nil) )
(assert (is-Cons l3) )
(assert (not (is-Nil Nil)) )
(check-sat)
